solving instance uflp nlass gunluk ../../../../../instances/uflp/gunluk/gunluk-20-40-3.txt exp
Couenne 0.5.8 -- an Open-Source solver for Mixed Integer Nonlinear Optimization
Mailing list: couenne@list.coin-or.org
Instructions: http://www.coin-or.org/Couenne
couenne: 
ANALYSIS TEST: Reformulating problem: 1.9 seconds
NLP0012I 
              Num      Status      Obj             It       time                 Location
NLP0014I             1         OPT 854.40818      139 10.796828
NLP0014I             2         OPT 854.40822       36 0.675992
Couenne: new cutoff value 8.5440822424e+02 (13.4511 seconds)
Loaded instance "/tmp/jl_p9HWT9/model.nl"
Constraints:         2440
Variables:           2420 (820 integer)
Auxiliaries:         4840 (0 integer)

Coin0506I Presolve 12114 (-3127) rows, 4019 (-3241) columns and 28737 (-4923) elements
Clp0006I 0  Obj 0 Primal inf 85426.317 (4845)
Clp0006I 285  Obj 1.0683633e-14 Primal inf 64108.132 (4588)
Clp0006I 570  Obj 8.49271e-15 Primal inf 51933.87 (4304)
Clp0006I 855  Obj 7.3018423e-15 Primal inf 36133.478 (4184)
Clp0006I 1140  Obj 7.9367721e-15 Primal inf 24396.65 (4276)
Clp0006I 1425  Obj 8.5216651e-15 Primal inf 12405.723 (4260)
Clp0006I 1710  Obj 2.5782714e-14 Primal inf 23266.394 (5307)
Clp0006I 1995  Obj 1.4818638e-14 Primal inf 15920.799 (6562)
Clp0006I 2280  Obj 2.3036086e-14 Primal inf 10367.476 (7057)
Clp0006I 2565  Obj 4.7850184e-12 Primal inf 7682.4696 (6661)
Clp0006I 2850  Obj 0.00019916111 Primal inf 6659.6433 (6415)
Clp0006I 3135  Obj 0.00056993072 Primal inf 7954.6145 (6027)
Clp0006I 3420  Obj 0.00066482363 Primal inf 6918.8973 (5472)
Clp0006I 3705  Obj 0.000797175 Primal inf 8183.9225 (4616)
Clp0006I 3990  Obj 0.00093644676 Primal inf 8031.5601 (3985)
Clp0006I 4275  Obj 0.0010168949 Primal inf 32125.74 (3396)
Clp0006I 4560  Obj 0.0014034653 Primal inf 21365.033 (3160)
Clp0006I 4845  Obj 0.0019362318 Primal inf 12881.312 (2864)
Clp0006I 5130  Obj 0.0023816344 Primal inf 7006.6152 (2574)
Clp0006I 5415  Obj 0.0028456629 Primal inf 3226.0795 (2213)
Clp0006I 5700  Obj 66.631195 Primal inf 1773.9379 (1837)
Clp0006I 5985  Obj 115.9907 Primal inf 1335.3157 (1485)
Clp0006I 6270  Obj 556.77504 Primal inf 390.60261 (1258)
Clp0006I 6555  Obj 650.67398 Primal inf 159.25589 (910)
Clp0006I 6840  Obj 718.15916 Primal inf 32.022203 (204)
Clp0006I 6929  Obj 730.27604
Clp0000I Optimal - objective value 730.27348
Clp0032I Optimal objective 730.2734766 - 6929 iterations time 0.852, Presolve 0.04
Clp0000I Optimal - objective value 730.27348
Cbc0012I Integer solution of 854.40822 found by Couenne Rounding NLP after 0 iterations and 0 nodes (0.03 seconds)
NLP Heuristic: NLP0014I             3      INFEAS 0.99999999      219 7.258487
no solution.
Clp0000I Optimal - objective value 730.27348
Optimality Based BT: 638 improved bounds
Probing: 0 improved bounds
NLP Heuristic: time limit reached.
Cbc0031I 169 added rows had average density of 2
Cbc0013I At root node, 169 cuts changed objective from 730.27348 to 735.20706 in 19 passes
Cbc0014I Cut generator 0 (Couenne convexifier cuts) - 1338 row cuts average 2.0 elements, 20 column cuts (189 active)
Cbc0010I After 0 nodes, 1 on tree, 854.40822 best solution, best possible 735.20706 (294.60 seconds)
Optimality Based BT: 134 improved bounds
Optimality Based BT: 159 improved bounds
Optimality Based BT: 150 improved bounds
Optimality Based BT: 189 improved bounds
Optimality Based BT: 169 improved bounds
Optimality Based BT: 204 improved bounds
Cbc0010I After 100 nodes, 43 on tree, 854.40822 best solution, best possible 747.40479 (3351.53 seconds)
Cbc0010I After 200 nodes, 82 on tree, 854.40822 best solution, best possible 749.1895 (3409.99 seconds)
Cbc0020I Exiting on maximum time
Cbc0005I Partial search - best objective 854.40822 (best possible 749.1895), took 62935 iterations and 217 nodes (3585.23 seconds)
Cbc0035I Maximum depth 38, 121 variables fixed on reduced cost

 	"Not finished"

Linearization cuts added at root node:      15241
Linearization cuts added in total:          15241  (separation time: 0.155872s)
Total solve time:                         3586.14s (3586.14s in branch-and-bound)
Lower bound:                               749.19
Upper bound:                              854.408  (gap: 14.03%)
Branch-and-bound nodes:                       217
Stats: /tmp/jl_p9HWT9/model.nl 2420 [var]  820 [int] 2440 [con] 4840 [aux]  15241 [root]    15241 [tot] 0.155872 [sep]  3586.14 [time]  3586.16 [bb]         7.491895e+02 [lower]         8.544082e+02 [upper]     217 [nodes]
Performance of                           FBBT:	    22.6473s,      547 runs. fix:          0 shrnk:     301.12 ubd:          0 2ubd:          0 infeas:          0
Performance of                           OBBT:	    456.358s,        7 runs. fix:          0 shrnk:    95.5683 ubd:          0 2ubd:          0 infeas:          0
ERROR: LoadError: MathOptInterface.GetAttributeNotAllowed{MathOptInterface.ObjectiveBound}: Getting attribute MathOptInterface.ObjectiveBound() cannot be performed: AmplNLWriter.Optimizer does not support getting the attribute MathOptInterface.ObjectiveBound(). You may want to use a `CachingOptimizer` in `AUTOMATIC` mode or you may need to call `reset_optimizer` before doing this operation if the `CachingOptimizer` is in `MANUAL` mode.
Stacktrace:
  [1] get_fallback(model::AmplNLWriter.Optimizer, attr::MathOptInterface.ObjectiveBound)
    @ MathOptInterface ~/.julia/packages/MathOptInterface/gLl4d/src/attributes.jl:409
  [2] get(::AmplNLWriter.Optimizer, ::MathOptInterface.ObjectiveBound)
    @ MathOptInterface ~/.julia/packages/MathOptInterface/gLl4d/src/attributes.jl:390
  [3] _get_model_attribute(model::MathOptInterface.Utilities.CachingOptimizer{AmplNLWriter.Optimizer, MathOptInterface.Utilities.UniversalFallback{MathOptInterface.Utilities.Model{Float64}}}, attr::MathOptInterface.ObjectiveBound)
    @ MathOptInterface.Utilities ~/.julia/packages/MathOptInterface/gLl4d/src/Utilities/cachingoptimizer.jl:865
  [4] get(model::MathOptInterface.Utilities.CachingOptimizer{AmplNLWriter.Optimizer, MathOptInterface.Utilities.UniversalFallback{MathOptInterface.Utilities.Model{Float64}}}, attr::MathOptInterface.ObjectiveBound)
    @ MathOptInterface.Utilities ~/.julia/packages/MathOptInterface/gLl4d/src/Utilities/cachingoptimizer.jl:900
  [5] get(b::MathOptInterface.Bridges.LazyBridgeOptimizer{MathOptInterface.Utilities.CachingOptimizer{AmplNLWriter.Optimizer, MathOptInterface.Utilities.UniversalFallback{MathOptInterface.Utilities.Model{Float64}}}}, attr::MathOptInterface.ObjectiveBound)
    @ MathOptInterface.Bridges ~/.julia/packages/MathOptInterface/gLl4d/src/Bridges/bridge_optimizer.jl:889
  [6] _get_model_attribute(model::MathOptInterface.Utilities.CachingOptimizer{MathOptInterface.Bridges.LazyBridgeOptimizer{MathOptInterface.Utilities.CachingOptimizer{AmplNLWriter.Optimizer, MathOptInterface.Utilities.UniversalFallback{MathOptInterface.Utilities.Model{Float64}}}}, MathOptInterface.Utilities.UniversalFallback{MathOptInterface.Utilities.Model{Float64}}}, attr::MathOptInterface.ObjectiveBound)
    @ MathOptInterface.Utilities ~/.julia/packages/MathOptInterface/gLl4d/src/Utilities/cachingoptimizer.jl:865
  [7] get(model::MathOptInterface.Utilities.CachingOptimizer{MathOptInterface.Bridges.LazyBridgeOptimizer{MathOptInterface.Utilities.CachingOptimizer{AmplNLWriter.Optimizer, MathOptInterface.Utilities.UniversalFallback{MathOptInterface.Utilities.Model{Float64}}}}, MathOptInterface.Utilities.UniversalFallback{MathOptInterface.Utilities.Model{Float64}}}, attr::MathOptInterface.ObjectiveBound)
    @ MathOptInterface.Utilities ~/.julia/packages/MathOptInterface/gLl4d/src/Utilities/cachingoptimizer.jl:900
  [8] _moi_get_result(model::MathOptInterface.Utilities.CachingOptimizer{MathOptInterface.Bridges.LazyBridgeOptimizer{MathOptInterface.Utilities.CachingOptimizer{AmplNLWriter.Optimizer, MathOptInterface.Utilities.UniversalFallback{MathOptInterface.Utilities.Model{Float64}}}}, MathOptInterface.Utilities.UniversalFallback{MathOptInterface.Utilities.Model{Float64}}}, args::MathOptInterface.ObjectiveBound)
    @ JuMP ~/.julia/packages/JuMP/i68GU/src/optimizer_interface.jl:1053
  [9] get(model::JuMP.Model, attr::MathOptInterface.ObjectiveBound)
    @ JuMP ~/.julia/packages/JuMP/i68GU/src/optimizer_interface.jl:1073
 [10] objective_bound(model::JuMP.Model)
    @ JuMP ~/.julia/packages/JuMP/i68GU/src/objective.jl:78
 [11] nl_uflp_nlass(filename::String, cost::Symbol, solver::AmplNLWriter.Optimizer, solver_params::Vector{Any}; solve::Bool, write_nl::Bool, with_cap_constraint::Bool)
    @ IterativePWLB ~/git/ipwlb/code/sources/IterativePWLB/src/nlsolver.jl:885
 [12] top-level scope
    @ ~/git/ipwlb/code/sources/IterativePWLB/test/couenne/uflp_nlass/script.jl:14
in expression starting at /home/ccontard/git/ipwlb/code/sources/IterativePWLB/test/couenne/uflp_nlass/script.jl:14
Generating Gunluk and Lee data file ../../../../../instances/uflp/gunluk/gunluk-20-40-3.txt
